09-routing/solutions/XSH-n20-k4-28.opt.sol
Route #1: 5 9 10 19 8
Route #2: 12 2 7 14 20
Route #3: 6 4 11 13 17
Route #4: 16 1 15 3 18
Cost 669
